NAME 
OBJSENSE MAX
ROWS
 N  OBJ
 L  packing[0]
 L  packing[1]
 L  packing[2]
 L  packing[3]
 L  packing[4]
 L  packing[5]
 L  packing[6]
 L  packing[7]
 L  packing[8]
 L  packing[9]
 L  packing[10]
 L  packing[11]
 L  packing[12]
 L  packing[13]
 L  packing[14]
 L  packing[15]
 L  packing[16]
 L  packing[17]
 L  packing[18]
 L  packing[19]
 L  packing[20]
 L  packing[21]
 L  packing[22]
 L  packing[23]
 L  packing[24]
 L  packing[25]
 L  packing[26]
 L  packing[27]
 L  packing[28]
 L  packing[29]
 L  packing[30]
 L  packing[31]
 L  packing[32]
 L  packing[33]
 L  packing[34]
 L  packing[35]
 L  packing[36]
 L  packing[37]
 L  packing[38]
 L  packing[39]
 L  packing[40]
 L  packing[41]
 L  packing[42]
 L  packing[43]
 L  packing[44]
 L  packing[45]
 L  packing[46]
 L  packing[47]
 L  packing[48]
 L  packing[49]
 L  R54     
COLUMNS
    MARKER    'MARKER'                 'INTORG'
    x[1]      OBJ       83
    x[1]      packing[0]  193
    x[1]      packing[1]  113
    x[1]      packing[3]  165
    x[1]      packing[4]  190
    x[1]      packing[5]  84
    x[1]      packing[6]  199
    x[1]      packing[7]  189
    x[1]      packing[8]  71
    x[1]      packing[9]  180
    x[1]      packing[10]  53
    x[1]      packing[11]  176
    x[1]      packing[12]  16
    x[1]      packing[13]  107
    x[1]      packing[15]  160
    x[1]      packing[17]  90
    x[1]      packing[19]  153
    x[1]      packing[20]  27
    x[1]      packing[21]  22
    x[1]      packing[22]  40
    x[1]      packing[24]  83
    x[1]      packing[25]  121
    x[1]      packing[26]  181
    x[1]      packing[28]  180
    x[1]      packing[29]  75
    x[1]      packing[32]  6
    x[1]      packing[33]  12
    x[1]      packing[34]  22
    x[1]      packing[35]  194
    x[1]      packing[36]  50
    x[1]      packing[37]  52
    x[1]      packing[39]  144
    x[1]      packing[41]  163
    x[1]      packing[42]  110
    x[1]      packing[43]  14
    x[1]      packing[44]  180
    x[1]      packing[46]  173
    x[1]      packing[48]  171
    x[2]      OBJ       177
    x[2]      packing[0]  79
    x[2]      packing[1]  187
    x[2]      packing[2]  185
    x[2]      packing[3]  4
    x[2]      packing[4]  153
    x[2]      packing[5]  123
    x[2]      packing[7]  119
    x[2]      packing[8]  98
    x[2]      packing[9]  39
    x[2]      packing[10]  141
    x[2]      packing[11]  188
    x[2]      packing[12]  43
    x[2]      packing[13]  191
    x[2]      packing[14]  197
    x[2]      packing[17]  72
    x[2]      packing[18]  149
    x[2]      packing[19]  153
    x[2]      packing[21]  18
    x[2]      packing[22]  83
    x[2]      packing[23]  74
    x[2]      packing[24]  84
    x[2]      packing[25]  9
    x[2]      packing[27]  26
    x[2]      packing[28]  153
    x[2]      packing[29]  17
    x[2]      packing[30]  138
    x[2]      packing[31]  149
    x[2]      packing[32]  18
    x[2]      packing[33]  59
    x[2]      packing[34]  184
    x[2]      packing[35]  136
    x[2]      packing[36]  19
    x[2]      packing[39]  184
    x[2]      packing[40]  163
    x[2]      packing[41]  163
    x[2]      packing[42]  70
    x[2]      packing[43]  106
    x[2]      packing[45]  65
    x[2]      packing[47]  142
    x[2]      packing[48]  4
    x[2]      R54       1
    x[3]      OBJ       64
    x[3]      packing[0]  12
    x[3]      packing[1]  44
    x[3]      packing[2]  28
    x[3]      packing[4]  53
    x[3]      packing[6]  154
    x[3]      packing[7]  199
    x[3]      packing[8]  131
    x[3]      packing[9]  19
    x[3]      packing[10]  38
    x[3]      packing[11]  102
    x[3]      packing[13]  157
    x[3]      packing[15]  185
    x[3]      packing[16]  189
    x[3]      packing[17]  131
    x[3]      packing[18]  183
    x[3]      packing[19]  23
    x[3]      packing[20]  133
    x[3]      packing[21]  28
    x[3]      packing[22]  88
    x[3]      packing[23]  68
    x[3]      packing[24]  121
    x[3]      packing[25]  97
    x[3]      packing[26]  114
    x[3]      packing[27]  12
    x[3]      packing[28]  128
    x[3]      packing[29]  153
    x[3]      packing[32]  190
    x[3]      packing[35]  85
    x[3]      packing[36]  52
    x[3]      packing[37]  184
    x[3]      packing[38]  6
    x[3]      packing[40]  106
    x[3]      packing[41]  53
    x[3]      packing[42]  75
    x[3]      packing[43]  80
    x[3]      packing[45]  50
    x[3]      packing[46]  14
    x[3]      packing[47]  150
    x[3]      packing[48]  191
    x[3]      packing[49]  154
    x[4]      OBJ       121
    x[4]      packing[0]  197
    x[4]      packing[2]  53
    x[4]      packing[3]  75
    x[4]      packing[4]  117
    x[4]      packing[5]  164
    x[4]      packing[6]  108
    x[4]      packing[7]  77
    x[4]      packing[8]  38
    x[4]      packing[9]  192
    x[4]      packing[10]  161
    x[4]      packing[11]  116
    x[4]      packing[16]  2
    x[4]      packing[17]  80
    x[4]      packing[18]  196
    x[4]      packing[19]  133
    x[4]      packing[21]  87
    x[4]      packing[22]  155
    x[4]      packing[23]  110
    x[4]      packing[24]  118
    x[4]      packing[25]  134
    x[4]      packing[26]  8
    x[4]      packing[28]  76
    x[4]      packing[29]  36
    x[4]      packing[30]  86
    x[4]      packing[32]  17
    x[4]      packing[34]  131
    x[4]      packing[35]  116
    x[4]      packing[36]  86
    x[4]      packing[37]  84
    x[4]      packing[38]  141
    x[4]      packing[40]  79
    x[4]      packing[41]  171
    x[4]      packing[42]  66
    x[4]      packing[43]  30
    x[4]      packing[44]  131
    x[4]      packing[45]  11
    x[4]      packing[46]  3
    x[4]      packing[47]  27
    x[4]      R54       1
    x[5]      OBJ       15
    x[5]      packing[1]  177
    x[5]      packing[3]  23
    x[5]      packing[4]  176
    x[5]      packing[5]  179
    x[5]      packing[6]  54
    x[5]      packing[7]  25
    x[5]      packing[8]  131
    x[5]      packing[9]  27
    x[5]      packing[10]  173
    x[5]      packing[11]  63
    x[5]      packing[13]  148
    x[5]      packing[14]  129
    x[5]      packing[17]  157
    x[5]      packing[18]  100
    x[5]      packing[19]  3
    x[5]      packing[20]  105
    x[5]      packing[21]  168
    x[5]      packing[22]  46
    x[5]      packing[23]  51
    x[5]      packing[25]  163
    x[5]      packing[26]  78
    x[5]      packing[27]  98
    x[5]      packing[28]  74
    x[5]      packing[29]  3
    x[5]      packing[31]  129
    x[5]      packing[32]  193
    x[5]      packing[33]  52
    x[5]      packing[35]  188
    x[5]      packing[36]  168
    x[5]      packing[37]  40
    x[5]      packing[38]  15
    x[5]      packing[39]  161
    x[5]      packing[40]  154
    x[5]      packing[41]  50
    x[5]      packing[43]  129
    x[5]      packing[45]  129
    x[5]      packing[46]  61
    x[5]      packing[47]  144
    x[5]      packing[49]  20
    x[6]      OBJ       105
    x[6]      packing[0]  106
    x[6]      packing[2]  59
    x[6]      packing[3]  45
    x[6]      packing[4]  164
    x[6]      packing[5]  7
    x[6]      packing[7]  48
    x[6]      packing[8]  137
    x[6]      packing[9]  62
    x[6]      packing[13]  166
    x[6]      packing[14]  156
    x[6]      packing[15]  33
    x[6]      packing[18]  116
    x[6]      packing[20]  71
    x[6]      packing[23]  194
    x[6]      packing[24]  81
    x[6]      packing[26]  111
    x[6]      packing[27]  11
    x[6]      packing[29]  55
    x[6]      packing[30]  180
    x[6]      packing[31]  2
    x[6]      packing[32]  192
    x[6]      packing[33]  75
    x[6]      packing[34]  190
    x[6]      packing[35]  117
    x[6]      packing[36]  56
    x[6]      packing[38]  197
    x[6]      packing[39]  189
    x[6]      packing[40]  124
    x[6]      packing[41]  190
    x[6]      packing[42]  146
    x[6]      packing[43]  147
    x[6]      packing[44]  66
    x[6]      packing[45]  39
    x[6]      packing[46]  161
    x[6]      packing[48]  70
    x[6]      packing[49]  148
    x[7]      OBJ       68
    x[7]      packing[2]  183
    x[7]      packing[3]  53
    x[7]      packing[5]  2
    x[7]      packing[6]  79
    x[7]      packing[7]  161
    x[7]      packing[8]  142
    x[7]      packing[9]  147
    x[7]      packing[10]  188
    x[7]      packing[12]  105
    x[7]      packing[13]  1
    x[7]      packing[14]  196
    x[7]      packing[15]  96
    x[7]      packing[16]  139
    x[7]      packing[17]  23
    x[7]      packing[18]  83
    x[7]      packing[20]  118
    x[7]      packing[21]  125
    x[7]      packing[22]  32
    x[7]      packing[23]  156
    x[7]      packing[24]  40
    x[7]      packing[25]  124
    x[7]      packing[27]  92
    x[7]      packing[31]  81
    x[7]      packing[32]  109
    x[7]      packing[33]  74
    x[7]      packing[35]  66
    x[7]      packing[36]  74
    x[7]      packing[39]  75
    x[7]      packing[40]  32
    x[7]      packing[42]  167
    x[7]      packing[43]  118
    x[7]      packing[44]  2
    x[7]      packing[46]  55
    x[7]      packing[47]  89
    x[7]      packing[49]  130
    x[8]      OBJ       177
    x[8]      packing[0]  131
    x[8]      packing[4]  37
    x[8]      packing[6]  16
    x[8]      packing[7]  126
    x[8]      packing[8]  79
    x[8]      packing[9]  160
    x[8]      packing[11]  13
    x[8]      packing[12]  134
    x[8]      packing[13]  167
    x[8]      packing[16]  177
    x[8]      packing[17]  24
    x[8]      packing[18]  198
    x[8]      packing[19]  52
    x[8]      packing[21]  68
    x[8]      packing[22]  163
    x[8]      packing[23]  154
    x[8]      packing[24]  115
    x[8]      packing[25]  22
    x[8]      packing[26]  145
    x[8]      packing[27]  121
    x[8]      packing[28]  113
    x[8]      packing[31]  39
    x[8]      packing[32]  112
    x[8]      packing[33]  189
    x[8]      packing[35]  27
    x[8]      packing[36]  114
    x[8]      packing[37]  152
    x[8]      packing[38]  96
    x[8]      packing[39]  101
    x[8]      packing[40]  199
    x[8]      packing[41]  97
    x[8]      packing[42]  144
    x[8]      packing[43]  168
    x[8]      packing[44]  156
    x[8]      packing[45]  34
    x[8]      packing[46]  87
    x[8]      packing[48]  76
    x[8]      packing[49]  14
    x[8]      R54       1
    x[9]      OBJ       145
    x[9]      packing[0]  168
    x[9]      packing[1]  80
    x[9]      packing[2]  129
    x[9]      packing[3]  109
    x[9]      packing[4]  176
    x[9]      packing[5]  51
    x[9]      packing[6]  102
    x[9]      packing[8]  105
    x[9]      packing[9]  92
    x[9]      packing[11]  161
    x[9]      packing[12]  139
    x[9]      packing[13]  49
    x[9]      packing[14]  55
    x[9]      packing[15]  197
    x[9]      packing[16]  195
    x[9]      packing[17]  143
    x[9]      packing[18]  53
    x[9]      packing[19]  54
    x[9]      packing[20]  123
    x[9]      packing[21]  66
    x[9]      packing[22]  104
    x[9]      packing[23]  4
    x[9]      packing[24]  165
    x[9]      packing[25]  139
    x[9]      packing[26]  131
    x[9]      packing[28]  193
    x[9]      packing[31]  181
    x[9]      packing[33]  32
    x[9]      packing[34]  104
    x[9]      packing[35]  55
    x[9]      packing[36]  145
    x[9]      packing[37]  74
    x[9]      packing[39]  12
    x[9]      packing[40]  128
    x[9]      packing[43]  103
    x[9]      packing[44]  88
    x[9]      packing[45]  40
    x[9]      packing[46]  77
    x[9]      packing[48]  38
    x[9]      R54       1
    x[10]     OBJ       33
    x[10]     packing[0]  110
    x[10]     packing[1]  189
    x[10]     packing[3]  19
    x[10]     packing[4]  48
    x[10]     packing[5]  36
    x[10]     packing[6]  180
    x[10]     packing[7]  74
    x[10]     packing[8]  126
    x[10]     packing[10]  101
    x[10]     packing[11]  21
    x[10]     packing[12]  155
    x[10]     packing[13]  185
    x[10]     packing[16]  159
    x[10]     packing[18]  87
    x[10]     packing[21]  126
    x[10]     packing[22]  157
    x[10]     packing[23]  51
    x[10]     packing[24]  92
    x[10]     packing[25]  2
    x[10]     packing[26]  83
    x[10]     packing[27]  55
    x[10]     packing[28]  45
    x[10]     packing[29]  101
    x[10]     packing[30]  89
    x[10]     packing[31]  43
    x[10]     packing[33]  88
    x[10]     packing[34]  125
    x[10]     packing[37]  37
    x[10]     packing[38]  159
    x[10]     packing[39]  107
    x[10]     packing[40]  141
    x[10]     packing[42]  75
    x[10]     packing[43]  26
    x[10]     packing[44]  122
    x[10]     packing[45]  75
    x[10]     packing[46]  124
    x[10]     packing[47]  11
    x[10]     packing[48]  189
    x[10]     packing[49]  104
    x[11]     OBJ       51
    x[11]     packing[0]  1
    x[11]     packing[1]  7
    x[11]     packing[4]  29
    x[11]     packing[5]  152
    x[11]     packing[6]  103
    x[11]     packing[8]  59
    x[11]     packing[9]  75
    x[11]     packing[10]  75
    x[11]     packing[11]  15
    x[11]     packing[12]  48
    x[11]     packing[13]  125
    x[11]     packing[15]  113
    x[11]     packing[16]  101
    x[11]     packing[17]  183
    x[11]     packing[18]  182
    x[11]     packing[19]  88
    x[11]     packing[20]  124
    x[11]     packing[22]  189
    x[11]     packing[24]  197
    x[11]     packing[26]  10
    x[11]     packing[28]  161
    x[11]     packing[29]  1
    x[11]     packing[30]  177
    x[11]     packing[33]  140
    x[11]     packing[34]  115
    x[11]     packing[35]  118
    x[11]     packing[36]  102
    x[11]     packing[37]  129
    x[11]     packing[39]  134
    x[11]     packing[40]  167
    x[11]     packing[41]  140
    x[11]     packing[42]  73
    x[11]     packing[43]  172
    x[11]     packing[44]  86
    x[11]     packing[46]  143
    x[11]     packing[47]  7
    x[11]     packing[48]  164
    x[11]     packing[49]  168
    x[12]     OBJ       24
    x[12]     packing[0]  129
    x[12]     packing[2]  121
    x[12]     packing[3]  113
    x[12]     packing[4]  135
    x[12]     packing[5]  61
    x[12]     packing[6]  174
    x[12]     packing[8]  149
    x[12]     packing[9]  53
    x[12]     packing[10]  75
    x[12]     packing[11]  85
    x[12]     packing[12]  86
    x[12]     packing[13]  184
    x[12]     packing[14]  167
    x[12]     packing[15]  13
    x[12]     packing[16]  8
    x[12]     packing[17]  100
    x[12]     packing[19]  47
    x[12]     packing[21]  98
    x[12]     packing[22]  189
    x[12]     packing[23]  94
    x[12]     packing[25]  150
    x[12]     packing[27]  34
    x[12]     packing[29]  112
    x[12]     packing[30]  135
    x[12]     packing[32]  43
    x[12]     packing[33]  34
    x[12]     packing[34]  79
    x[12]     packing[35]  40
    x[12]     packing[36]  16
    x[12]     packing[37]  127
    x[12]     packing[38]  60
    x[12]     packing[40]  91
    x[12]     packing[41]  165
    x[12]     packing[44]  30
    x[12]     packing[45]  164
    x[12]     packing[46]  75
    x[12]     packing[47]  156
    x[12]     packing[48]  139
    x[12]     packing[49]  182
    x[13]     OBJ       90
    x[13]     packing[1]  121
    x[13]     packing[2]  77
    x[13]     packing[3]  14
    x[13]     packing[5]  57
    x[13]     packing[7]  96
    x[13]     packing[8]  63
    x[13]     packing[10]  119
    x[13]     packing[12]  114
    x[13]     packing[14]  141
    x[13]     packing[15]  87
    x[13]     packing[16]  186
    x[13]     packing[17]  76
    x[13]     packing[19]  109
    x[13]     packing[21]  136
    x[13]     packing[22]  180
    x[13]     packing[23]  79
    x[13]     packing[24]  152
    x[13]     packing[25]  171
    x[13]     packing[26]  10
    x[13]     packing[28]  78
    x[13]     packing[29]  83
    x[13]     packing[31]  89
    x[13]     packing[32]  137
    x[13]     packing[33]  149
    x[13]     packing[35]  34
    x[13]     packing[36]  43
    x[13]     packing[37]  130
    x[13]     packing[39]  147
    x[13]     packing[40]  106
    x[13]     packing[41]  100
    x[13]     packing[42]  120
    x[13]     packing[45]  115
    x[13]     packing[46]  172
    x[13]     packing[47]  109
    x[13]     packing[48]  37
    x[13]     packing[49]  68
    x[14]     OBJ       60
    x[14]     packing[0]  69
    x[14]     packing[1]  188
    x[14]     packing[3]  124
    x[14]     packing[4]  97
    x[14]     packing[7]  157
    x[14]     packing[8]  83
    x[14]     packing[9]  108
    x[14]     packing[10]  111
    x[14]     packing[11]  63
    x[14]     packing[12]  119
    x[14]     packing[13]  34
    x[14]     packing[14]  116
    x[14]     packing[16]  42
    x[14]     packing[17]  147
    x[14]     packing[20]  95
    x[14]     packing[21]  91
    x[14]     packing[23]  9
    x[14]     packing[24]  154
    x[14]     packing[25]  131
    x[14]     packing[26]  2
    x[14]     packing[27]  63
    x[14]     packing[28]  3
    x[14]     packing[29]  111
    x[14]     packing[30]  51
    x[14]     packing[31]  100
    x[14]     packing[32]  29
    x[14]     packing[33]  4
    x[14]     packing[35]  19
    x[14]     packing[36]  72
    x[14]     packing[37]  123
    x[14]     packing[38]  9
    x[14]     packing[39]  72
    x[14]     packing[40]  19
    x[14]     packing[42]  118
    x[14]     packing[43]  198
    x[14]     packing[47]  165
    x[14]     packing[48]  105
    x[14]     packing[49]  167
    x[15]     OBJ       165
    x[15]     packing[0]  90
    x[15]     packing[1]  13
    x[15]     packing[4]  150
    x[15]     packing[5]  96
    x[15]     packing[6]  38
    x[15]     packing[7]  70
    x[15]     packing[9]  196
    x[15]     packing[10]  155
    x[15]     packing[11]  155
    x[15]     packing[12]  130
    x[15]     packing[14]  145
    x[15]     packing[15]  7
    x[15]     packing[17]  98
    x[15]     packing[18]  50
    x[15]     packing[19]  75
    x[15]     packing[20]  128
    x[15]     packing[22]  149
    x[15]     packing[23]  173
    x[15]     packing[24]  54
    x[15]     packing[25]  46
    x[15]     packing[26]  96
    x[15]     packing[27]  43
    x[15]     packing[29]  3
    x[15]     packing[31]  188
    x[15]     packing[33]  55
    x[15]     packing[34]  160
    x[15]     packing[35]  163
    x[15]     packing[36]  124
    x[15]     packing[39]  104
    x[15]     packing[40]  124
    x[15]     packing[41]  172
    x[15]     packing[42]  34
    x[15]     packing[43]  99
    x[15]     packing[48]  159
    x[15]     R54       1
    x[16]     OBJ       70
    x[16]     packing[2]  162
    x[16]     packing[3]  6
    x[16]     packing[4]  74
    x[16]     packing[5]  53
    x[16]     packing[6]  81
    x[16]     packing[7]  103
    x[16]     packing[8]  183
    x[16]     packing[10]  84
    x[16]     packing[11]  102
    x[16]     packing[12]  49
    x[16]     packing[14]  41
    x[16]     packing[15]  99
    x[16]     packing[16]  61
    x[16]     packing[17]  137
    x[16]     packing[18]  147
    x[16]     packing[19]  8
    x[16]     packing[20]  154
    x[16]     packing[21]  33
    x[16]     packing[24]  92
    x[16]     packing[25]  38
    x[16]     packing[27]  17
    x[16]     packing[28]  196
    x[16]     packing[29]  161
    x[16]     packing[30]  49
    x[16]     packing[31]  130
    x[16]     packing[32]  133
    x[16]     packing[33]  187
    x[16]     packing[34]  139
    x[16]     packing[35]  128
    x[16]     packing[36]  135
    x[16]     packing[37]  115
    x[16]     packing[39]  50
    x[16]     packing[40]  146
    x[16]     packing[41]  61
    x[16]     packing[42]  125
    x[16]     packing[44]  41
    x[16]     packing[45]  97
    x[16]     packing[47]  142
    x[16]     packing[48]  62
    x[16]     packing[49]  7
    x[17]     OBJ       81
    x[17]     packing[0]  185
    x[17]     packing[1]  182
    x[17]     packing[2]  172
    x[17]     packing[3]  24
    x[17]     packing[4]  38
    x[17]     packing[5]  60
    x[17]     packing[9]  130
    x[17]     packing[10]  176
    x[17]     packing[12]  139
    x[17]     packing[13]  121
    x[17]     packing[15]  17
    x[17]     packing[16]  151
    x[17]     packing[17]  155
    x[17]     packing[18]  189
    x[17]     packing[19]  69
    x[17]     packing[20]  173
    x[17]     packing[21]  162
    x[17]     packing[22]  174
    x[17]     packing[23]  87
    x[17]     packing[25]  131
    x[17]     packing[26]  89
    x[17]     packing[27]  46
    x[17]     packing[28]  82
    x[17]     packing[30]  157
    x[17]     packing[31]  55
    x[17]     packing[32]  117
    x[17]     packing[34]  145
    x[17]     packing[35]  7
    x[17]     packing[37]  11
    x[17]     packing[38]  183
    x[17]     packing[39]  44
    x[17]     packing[42]  33
    x[17]     packing[43]  116
    x[17]     packing[44]  77
    x[17]     packing[46]  182
    x[17]     packing[47]  22
    x[17]     packing[49]  116
    x[18]     OBJ       30
    x[18]     packing[0]  11
    x[18]     packing[1]  156
    x[18]     packing[4]  135
    x[18]     packing[5]  199
    x[18]     packing[6]  100
    x[18]     packing[7]  62
    x[18]     packing[8]  62
    x[18]     packing[9]  3
    x[18]     packing[10]  71
    x[18]     packing[11]  132
    x[18]     packing[12]  154
    x[18]     packing[15]  8
    x[18]     packing[16]  141
    x[18]     packing[17]  153
    x[18]     packing[18]  45
    x[18]     packing[19]  15
    x[18]     packing[23]  123
    x[18]     packing[24]  123
    x[18]     packing[25]  157
    x[18]     packing[26]  195
    x[18]     packing[29]  163
    x[18]     packing[31]  37
    x[18]     packing[32]  106
    x[18]     packing[33]  198
    x[18]     packing[34]  197
    x[18]     packing[36]  157
    x[18]     packing[37]  111
    x[18]     packing[39]  86
    x[18]     packing[41]  142
    x[18]     packing[42]  166
    x[18]     packing[43]  63
    x[18]     packing[44]  59
    x[18]     packing[45]  81
    x[18]     packing[46]  127
    x[18]     packing[48]  105
    x[19]     OBJ       125
    x[19]     packing[0]  9
    x[19]     packing[1]  151
    x[19]     packing[2]  187
    x[19]     packing[3]  104
    x[19]     packing[4]  166
    x[19]     packing[5]  56
    x[19]     packing[6]  147
    x[19]     packing[7]  134
    x[19]     packing[8]  112
    x[19]     packing[9]  55
    x[19]     packing[10]  1
    x[19]     packing[12]  24
    x[19]     packing[13]  51
    x[19]     packing[14]  13
    x[19]     packing[15]  97
    x[19]     packing[16]  75
    x[19]     packing[17]  42
    x[19]     packing[18]  177
    x[19]     packing[19]  101
    x[19]     packing[20]  52
    x[19]     packing[23]  101
    x[19]     packing[24]  68
    x[19]     packing[25]  130
    x[19]     packing[26]  153
    x[19]     packing[28]  60
    x[19]     packing[29]  10
    x[19]     packing[32]  14
    x[19]     packing[33]  177
    x[19]     packing[34]  154
    x[19]     packing[35]  180
    x[19]     packing[36]  81
    x[19]     packing[37]  111
    x[19]     packing[38]  105
    x[19]     packing[39]  33
    x[19]     packing[42]  36
    x[19]     packing[43]  130
    x[19]     packing[45]  188
    x[19]     packing[46]  159
    x[19]     packing[47]  100
    x[19]     packing[48]  158
    x[19]     packing[49]  61
    x[19]     R54       1
    x[20]     OBJ       82
    x[20]     packing[0]  84
    x[20]     packing[1]  125
    x[20]     packing[4]  104
    x[20]     packing[7]  198
    x[20]     packing[8]  48
    x[20]     packing[9]  166
    x[20]     packing[11]  177
    x[20]     packing[12]  83
    x[20]     packing[13]  22
    x[20]     packing[14]  99
    x[20]     packing[18]  192
    x[20]     packing[19]  19
    x[20]     packing[20]  163
    x[20]     packing[21]  139
    x[20]     packing[22]  157
    x[20]     packing[24]  156
    x[20]     packing[25]  196
    x[20]     packing[26]  189
    x[20]     packing[29]  181
    x[20]     packing[31]  145
    x[20]     packing[32]  28
    x[20]     packing[33]  73
    x[20]     packing[34]  195
    x[20]     packing[35]  148
    x[20]     packing[39]  126
    x[20]     packing[40]  170
    x[20]     packing[41]  8
    x[20]     packing[42]  153
    x[20]     packing[44]  39
    x[20]     packing[48]  115
    x[20]     packing[49]  123
    MARKER    'MARKER'                 'INTEND'
RHS
    RHS1      packing[0]  787
    RHS1      packing[1]  867
    RHS1      packing[2]  678
    RHS1      packing[3]  439
    RHS1      packing[4]  1021
    RHS1      packing[5]  690
    RHS1      packing[6]  768
    RHS1      packing[7]  919
    RHS1      packing[8]  909
    RHS1      packing[9]  852
    RHS1      packing[10]  861
    RHS1      packing[11]  785
    RHS1      packing[12]  769
    RHS1      packing[13]  854
    RHS1      packing[14]  728
    RHS1      packing[15]  556
    RHS1      packing[16]  813
    RHS1      packing[17]  906
    RHS1      packing[18]  1074
    RHS1      packing[19]  551
    RHS1      packing[20]  733
    RHS1      packing[21]  684
    RHS1      packing[22]  953
    RHS1      packing[23]  764
    RHS1      packing[24]  948
    RHS1      packing[25]  981
    RHS1      packing[26]  798
    RHS1      packing[27]  309
    RHS1      packing[28]  771
    RHS1      packing[29]  633
    RHS1      packing[30]  531
    RHS1      packing[31]  684
    RHS1      packing[32]  722
    RHS1      packing[33]  799
    RHS1      packing[34]  970
    RHS1      packing[35]  911
    RHS1      packing[36]  747
    RHS1      packing[37]  740
    RHS1      packing[38]  486
    RHS1      packing[39]  885
    RHS1      packing[40]  975
    RHS1      packing[41]  838
    RHS1      packing[42]  856
    RHS1      packing[43]  850
    RHS1      packing[44]  539
    RHS1      packing[45]  544
    RHS1      packing[46]  807
    RHS1      packing[47]  632
    RHS1      packing[48]  892
    RHS1      packing[49]  731
    RHS1      R54       5
BOUNDS
 BV BND1      x[1]    
 BV BND1      x[2]    
 BV BND1      x[3]    
 BV BND1      x[4]    
 BV BND1      x[5]    
 BV BND1      x[6]    
 BV BND1      x[7]    
 BV BND1      x[8]    
 BV BND1      x[9]    
 BV BND1      x[10]   
 BV BND1      x[11]   
 BV BND1      x[12]   
 BV BND1      x[13]   
 BV BND1      x[14]   
 BV BND1      x[15]   
 BV BND1      x[16]   
 BV BND1      x[17]   
 BV BND1      x[18]   
 BV BND1      x[19]   
 BV BND1      x[20]   
ENDATA
